single_objective/SL-DABL/OP/problems/op/OPLib-master/instances/gen1/gil262-gen1-50.oplib
NAME : gil262
COMMENT : 262-city problem (Gillet/Johnson)
TYPE : OP
DIMENSION : 262
COST_LIMIT : 1189
EDGE_WEIGHT_TYPE : EUC_2D
NODE_COORD_SECTION
1 -99 -97
2 -59 50
3 0 14
4 -17 -66
5 -69 -19
6 31 12
7 5 -41
8 -12 10
9 -64 70
10 -12 85
11 -18 64
12 -77 -16
13 -53 88
14 83 -24
15 24 41
16 17 21
17 42 96
18 -65 0
19 -47 -26
20 85 36
21 -35 -54
22 54 -21
23 64 -17
24 55 89
25 17 -25
26 -61 66
27 -61 26
28 17 -72
29 79 38
30 -62 -2
31 -90 -68
32 52 66
33 -54 -50
34 8 -84
35 37 -90
36 -83 49
37 35 -1
38 7 59
39 12 48
40 57 95
41 92 28
42 -3 97
43 -7 52
44 42 -15
45 77 -43
46 59 -49
47 25 91
48 69 -19
49 -82 -14
50 74 -70
51 69 59
52 29 33
53 -97 9
54 -58 9
55 28 93
56 7 73
57 -28 73
58 -76 55
59 41 42
60 92 40
61 -84 -29
62 -12 42
63 51 -45
64 -37 46
65 -97 35
66 14 89
67 60 58
68 -63 -75
69 -18 34
70 -46 -82
71 -86 -79
72 -43 -30
73 -44 7
74 -3 -20
75 36 41
76 -30 -94
77 79 -62
78 51 70
79 -61 -26
80 6 94
81 -19 -62
82 -20 51
83 -81 37
84 7 31
85 52 12
86 83 -91
87 -7 -92
88 82 -74
89 -70 85
90 -83 -30
91 71 -61
92 85 11
93 66 -48
94 78 -87
95 9 -79
96 -36 4
97 66 39
98 92 -17
99 -46 -79
100 -30 -63
101 -42 63
102 20 42
103 15 98
104 1 -17
105 64 20
106 -96 85
107 93 -29
108 -40 -84
109 86 35
110 91 36
111 62 -8
112 -24 4
113 11 96
114 -53 62
115 -28 -71
116 7 -4
117 95 -9
118 -3 17
119 53 -90
120 58 -19
121 -83 84
122 -1 49
123 -4 17
124 -82 -3
125 -43 47
126 6 -6
127 70 99
128 68 -29
129 -94 -30
130 -94 -20
131 -21 77
132 64 37
133 -70 -19
134 88 65
135 2 29
136 33 57
137 -70 6
138 -38 -56
139 -80 -95
140 -5 -39
141 8 -22
142 -61 -76
143 76 -22
144 49 -71
145 -30 -68
146 1 34
147 77 79
148 -58 64
149 82 -97
150 -80 55
151 81 -86
152 39 -49
153 -67 72
154 -25 -89
155 -44 -95
156 32 -68
157 -17 49
158 93 49
159 99 81
160 10 -49
161 63 -41
162 38 39
163 -28 39
164 -2 -47
165 38 8
166 -42 -6
167 -67 88
168 19 93
169 40 27
170 -61 56
171 43 33
172 -18 -39
173 -69 19
174 75 -18
175 31 85
176 25 58
177 -16 36
178 91 15
179 60 -39
180 49 -47
181 42 33
182 16 -81
183 -78 53
184 53 -80
185 -46 -26
186 -25 -54
187 69 -46
188 0 -78
189 -84 74
190 -16 16
191 -63 -14
192 51 -77
193 -39 61
194 5 97
195 -55 39
196 70 -14
197 0 95
198 -45 7
199 38 -24
200 50 -37
201 59 71
202 -73 -96
203 -29 72
204 -47 12
205 -88 -61
206 -88 36
207 -46 -3
208 26 -37
209 -39 -67
210 92 27
211 -80 -31
212 93 -50
213 -20 -5
214 -22 73
215 -4 -7
216 54 -48
217 -70 39
218 54 -82
219 29 41
220 -87 51
221 -96 -36
222 49 8
223 -5 54
224 -26 43
225 -11 60
226 40 61
227 82 35
228 -92 12
229 -93 -86
230 -66 63
231 -72 -87
232 -57 -84
233 23 52
234 -56 -62
235 -19 59
236 63 -14
237 -13 38
238 -19 87
239 44 -84
240 98 -17
241 -16 62
242 3 66
243 26 22
244 -38 -81
245 70 80
246 17 -35
247 96 -83
248 -77 80
249 -14 44
250 -33 33
251 33 -33
252 70 0
253 -50 60
254 -50 -60
255 75 0
256 0 75
257 -75 0
258 0 -75
259 40 80
260 40 -80
261 -60 20
262 -60 -20
NODE_SCORE_SECTION
1 1
2 1
3 1
4 1
5 1
6 1
7 1
8 1
9 1
10 1
11 1
12 1
13 1
14 1
15 1
16 1
17 1
18 1
19 1
20 1
21 1
22 1
23 1
24 1
25 1
26 1
27 1
28 1
29 1
30 1
31 1
32 1
33 1
34 1
35 1
36 1
37 1
38 1
39 1
40 1
41 1
42 1
43 1
44 1
45 1
46 1
47 1
48 1
49 1
50 1
51 1
52 1
53 1
54 1
55 1
56 1
57 1
58 1
59 1
60 1
61 1
62 1
63 1
64 1
65 1
66 1
67 1
68 1
69 1
70 1
71 1
72 1
73 1
74 1
75 1
76 1
77 1
78 1
79 1
80 1
81 1
82 1
83 1
84 1
85 1
86 1
87 1
88 1
89 1
90 1
91 1
92 1
93 1
94 1
95 1
96 1
97 1
98 1
99 1
100 1
101 1
102 1
103 1
104 1
105 1
106 1
107 1
108 1
109 1
110 1
111 1
112 1
113 1
114 1
115 1
116 1
117 1
118 1
119 1
120 1
121 1
122 1
123 1
124 1
125 1
126 1
127 1
128 1
129 1
130 1
131 1
132 1
133 1
134 1
135 1
136 1
137 1
138 1
139 1
140 1
141 1
142 1
143 1
144 1
145 1
146 1
147 1
148 1
149 1
150 1
151 1
152 1
153 1
154 1
155 1
156 1
157 1
158 1
159 1
160 1
161 1
162 1
163 1
164 1
165 1
166 1
167 1
168 1
169 1
170 1
171 1
172 1
173 1
174 1
175 1
176 1
177 1
178 1
179 1
180 1
181 1
182 1
183 1
184 1
185 1
186 1
187 1
188 1
189 1
190 1
191 1
192 1
193 1
194 1
195 1
196 1
197 1
198 1
199 1
200 1
201 1
202 1
203 1
204 1
205 1
206 1
207 1
208 1
209 1
210 1
211 1
212 1
213 1
214 1
215 1
216 1
217 1
218 1
219 1
220 1
221 1
222 1
223 1
224 1
225 1
226 1
227 1
228 1
229 1
230 1
231 1
232 1
233 1
234 1
235 1
236 1
237 1
238 1
239 1
240 1
241 1
242 1
243 1
244 1
245 1
246 1
247 1
248 1
249 1
250 1
251 1
252 1
253 1
254 1
255 1
256 1
257 1
258 1
259 1
260 1
261 1
262 1
DEPOT_SECTION
1
-1
EOF
