single_objective/SL-DABL/OP/problems/op/OPLib-master/solutions/ea4op/gen1/gil262-gen1-50.sol
NAME : gil262
TYPE : OP
DIMENSION : 262
COST_LIMIT : 1189
ROUTE_NODES : 156
ROUTE_SCORE : 156
ROUTE_COST : 1189
NODE_SEQUENCE_SECTION
1
139
202
231
68
142
232
99
70
108
244
115
145
100
138
21
186
81
4
258
188
34
95
182
260
239
218
184
192
144
180
63
216
46
93
187
161
179
128
143
174
196
48
23
236
111
252
255
92
178
210
41
110
109
20
227
29
97
132
171
181
162
59
75
219
15
102
233
176
136
226
32
78
259
175
55
47
168
103
113
80
194
197
42
10
238
131
214
57
203
193
101
253
114
148
26
9
153
230
58
150
220
36
183
170
2
125
64
224
163
69
177
237
62
249
157
82
235
11
241
225
223
43
122
146
84
135
123
118
3
8
112
96
73
198
204
54
18
30
207
166
185
19
262
191
5
133
211
90
61
129
221
205
31
71
229
-1
DEPOT_SECTION
1
-1
EOF
